c
c Renamed file of cm138a.cnf 
c Variables are renamed according to left2right.ord 
c
c Date: Thu Apr 29 14:49:11 PDT 2004 by (jinbo)
c Host: Linux solution 2.4.18-4smp #1 SMP Thu May 2 18:32:34 EDT 2002 i686 unknown
c
c Copyright (c) 2001 Fadi A. Aloul.
c
p cnf 50 114
11 -42 0
42 -11 0
-42 45 0
26 -44 0
44 -26 0
-44 45 0
17 -43 0
43 -17 0
-43 45 0
38 -46 0
46 -38 0
-46 45 0
-45 42 44 43 46 0
-11 -13 0
13 11 0
-13 22 0
26 -27 0
27 -26 0
-27 22 0
17 -15 0
15 -17 0
-15 22 0
38 -32 0
32 -38 0
-32 22 0
-22 13 27 15 32 0
11 -8 0
8 -11 0
-8 6 0
-26 -7 0
7 26 0
-7 6 0
17 -5 0
5 -17 0
-5 6 0
38 -36 0
36 -38 0
-36 6 0
-6 8 7 5 36 0
-11 -12 0
12 11 0
-12 21 0
-26 -25 0
25 26 0
-25 21 0
17 -16 0
16 -17 0
-16 21 0
38 -33 0
33 -38 0
-33 21 0
-21 12 25 16 33 0
11 -14 0
14 -11 0
-14 29 0
26 -28 0
28 -26 0
-28 29 0
-17 -18 0
18 17 0
-18 29 0
38 -37 0
37 -38 0
-37 29 0
-29 14 28 18 37 0
-11 -9 0
9 11 0
-9 23 0
26 -24 0
24 -26 0
-24 23 0
-17 -20 0
20 17 0
-20 23 0
38 -34 0
34 -38 0
-34 23 0
-23 9 24 20 34 0
11 -10 0
10 -11 0
-10 31 0
-26 -30 0
30 26 0
-30 31 0
-17 -19 0
19 17 0
-19 31 0
38 -39 0
39 -38 0
-39 31 0
-31 10 30 19 39 0
-11 -4 0
4 11 0
-4 2 0
-26 -3 0
3 26 0
-3 2 0
-17 -1 0
1 17 0
-1 2 0
38 -35 0
35 -38 0
-35 2 0
-2 4 3 1 35 0
50 -49 0
49 -50 0
-49 38 0
48 -47 0
47 -48 0
-47 38 0
-41 -40 0
40 41 0
-40 38 0
-38 49 47 40 0
